c solution = True
p edge 1111 1110
e 2 1 1
e 3 1 1
e 4 1 1
e 5 1 1
e 6 1 1
e 7 1 1
e 8 1 1
e 9 1 1
e 10 1 1
e 11 1 1
e 102 11 1
e 103 11 1
e 104 11 1
e 105 11 1
e 106 11 1
e 107 11 1
e 108 11 1
e 109 11 1
e 110 11 1
e 111 11 1
e 1102 111 1
e 1103 111 1
e 1104 111 1
e 1105 111 1
e 1106 111 1
e 1107 111 1
e 1108 111 1
e 1109 111 1
e 1110 111 1
e 1111 111 1
e 1092 110 1
e 1093 110 1
e 1094 110 1
e 1095 110 1
e 1096 110 1
e 1097 110 1
e 1098 110 1
e 1099 110 1
e 1100 110 1
e 1101 110 1
e 1082 109 1
e 1083 109 1
e 1084 109 1
e 1085 109 1
e 1086 109 1
e 1087 109 1
e 1088 109 1
e 1089 109 1
e 1090 109 1
e 1091 109 1
e 1072 108 1
e 1073 108 1
e 1074 108 1
e 1075 108 1
e 1076 108 1
e 1077 108 1
e 1078 108 1
e 1079 108 1
e 1080 108 1
e 1081 108 1
e 1062 107 1
e 1063 107 1
e 1064 107 1
e 1065 107 1
e 1066 107 1
e 1067 107 1
e 1068 107 1
e 1069 107 1
e 1070 107 1
e 1071 107 1
e 1052 106 1
e 1053 106 1
e 1054 106 1
e 1055 106 1
e 1056 106 1
e 1057 106 1
e 1058 106 1
e 1059 106 1
e 1060 106 1
e 1061 106 1
e 1042 105 1
e 1043 105 1
e 1044 105 1
e 1045 105 1
e 1046 105 1
e 1047 105 1
e 1048 105 1
e 1049 105 1
e 1050 105 1
e 1051 105 1
e 1032 104 1
e 1033 104 1
e 1034 104 1
e 1035 104 1
e 1036 104 1
e 1037 104 1
e 1038 104 1
e 1039 104 1
e 1040 104 1
e 1041 104 1
e 1022 103 1
e 1023 103 1
e 1024 103 1
e 1025 103 1
e 1026 103 1
e 1027 103 1
e 1028 103 1
e 1029 103 1
e 1030 103 1
e 1031 103 1
e 1012 102 1
e 1013 102 1
e 1014 102 1
e 1015 102 1
e 1016 102 1
e 1017 102 1
e 1018 102 1
e 1019 102 1
e 1020 102 1
e 1021 102 1
e 92 10 1
e 93 10 1
e 94 10 1
e 95 10 1
e 96 10 1
e 97 10 1
e 98 10 1
e 99 10 1
e 100 10 1
e 101 10 1
e 1002 101 1
e 1003 101 1
e 1004 101 1
e 1005 101 1
e 1006 101 1
e 1007 101 1
e 1008 101 1
e 1009 101 1
e 1010 101 1
e 1011 101 1
e 992 100 1
e 993 100 1
e 994 100 1
e 995 100 1
e 996 100 1
e 997 100 1
e 998 100 1
e 999 100 1
e 1000 100 1
e 1001 100 1
e 982 99 1
e 983 99 1
e 984 99 1
e 985 99 1
e 986 99 1
e 987 99 1
e 988 99 1
e 989 99 1
e 990 99 1
e 991 99 1
e 972 98 1
e 973 98 1
e 974 98 1
e 975 98 1
e 976 98 1
e 977 98 1
e 978 98 1
e 979 98 1
e 980 98 1
e 981 98 1
e 962 97 1
e 963 97 1
e 964 97 1
e 965 97 1
e 966 97 1
e 967 97 1
e 968 97 1
e 969 97 1
e 970 97 1
e 971 97 1
e 952 96 1
e 953 96 1
e 954 96 1
e 955 96 1
e 956 96 1
e 957 96 1
e 958 96 1
e 959 96 1
e 960 96 1
e 961 96 1
e 942 95 1
e 943 95 1
e 944 95 1
e 945 95 1
e 946 95 1
e 947 95 1
e 948 95 1
e 949 95 1
e 950 95 1
e 951 95 1
e 932 94 1
e 933 94 1
e 934 94 1
e 935 94 1
e 936 94 1
e 937 94 1
e 938 94 1
e 939 94 1
e 940 94 1
e 941 94 1
e 922 93 1
e 923 93 1
e 924 93 1
e 925 93 1
e 926 93 1
e 927 93 1
e 928 93 1
e 929 93 1
e 930 93 1
e 931 93 1
e 912 92 1
e 913 92 1
e 914 92 1
e 915 92 1
e 916 92 1
e 917 92 1
e 918 92 1
e 919 92 1
e 920 92 1
e 921 92 1
e 82 9 1
e 83 9 1
e 84 9 1
e 85 9 1
e 86 9 1
e 87 9 1
e 88 9 1
e 89 9 1
e 90 9 1
e 91 9 1
e 902 91 1
e 903 91 1
e 904 91 1
e 905 91 1
e 906 91 1
e 907 91 1
e 908 91 1
e 909 91 1
e 910 91 1
e 911 91 1
e 892 90 1
e 893 90 1
e 894 90 1
e 895 90 1
e 896 90 1
e 897 90 1
e 898 90 1
e 899 90 1
e 900 90 1
e 901 90 1
e 882 89 1
e 883 89 1
e 884 89 1
e 885 89 1
e 886 89 1
e 887 89 1
e 888 89 1
e 889 89 1
e 890 89 1
e 891 89 1
e 872 88 1
e 873 88 1
e 874 88 1
e 875 88 1
e 876 88 1
e 877 88 1
e 878 88 1
e 879 88 1
e 880 88 1
e 881 88 1
e 862 87 1
e 863 87 1
e 864 87 1
e 865 87 1
e 866 87 1
e 867 87 1
e 868 87 1
e 869 87 1
e 870 87 1
e 871 87 1
e 852 86 1
e 853 86 1
e 854 86 1
e 855 86 1
e 856 86 1
e 857 86 1
e 858 86 1
e 859 86 1
e 860 86 1
e 861 86 1
e 842 85 1
e 843 85 1
e 844 85 1
e 845 85 1
e 846 85 1
e 847 85 1
e 848 85 1
e 849 85 1
e 850 85 1
e 851 85 1
e 832 84 1
e 833 84 1
e 834 84 1
e 835 84 1
e 836 84 1
e 837 84 1
e 838 84 1
e 839 84 1
e 840 84 1
e 841 84 1
e 822 83 1
e 823 83 1
e 824 83 1
e 825 83 1
e 826 83 1
e 827 83 1
e 828 83 1
e 829 83 1
e 830 83 1
e 831 83 1
e 812 82 1
e 813 82 1
e 814 82 1
e 815 82 1
e 816 82 1
e 817 82 1
e 818 82 1
e 819 82 1
e 820 82 1
e 821 82 1
e 72 8 1
e 73 8 1
e 74 8 1
e 75 8 1
e 76 8 1
e 77 8 1
e 78 8 1
e 79 8 1
e 80 8 1
e 81 8 1
e 802 81 1
e 803 81 1
e 804 81 1
e 805 81 1
e 806 81 1
e 807 81 1
e 808 81 1
e 809 81 1
e 810 81 1
e 811 81 1
e 792 80 1
e 793 80 1
e 794 80 1
e 795 80 1
e 796 80 1
e 797 80 1
e 798 80 1
e 799 80 1
e 800 80 1
e 801 80 1
e 782 79 1
e 783 79 1
e 784 79 1
e 785 79 1
e 786 79 1
e 787 79 1
e 788 79 1
e 789 79 1
e 790 79 1
e 791 79 1
e 772 78 1
e 773 78 1
e 774 78 1
e 775 78 1
e 776 78 1
e 777 78 1
e 778 78 1
e 779 78 1
e 780 78 1
e 781 78 1
e 762 77 1
e 763 77 1
e 764 77 1
e 765 77 1
e 766 77 1
e 767 77 1
e 768 77 1
e 769 77 1
e 770 77 1
e 771 77 1
e 752 76 1
e 753 76 1
e 754 76 1
e 755 76 1
e 756 76 1
e 757 76 1
e 758 76 1
e 759 76 1
e 760 76 1
e 761 76 1
e 742 75 1
e 743 75 1
e 744 75 1
e 745 75 1
e 746 75 1
e 747 75 1
e 748 75 1
e 749 75 1
e 750 75 1
e 751 75 1
e 732 74 1
e 733 74 1
e 734 74 1
e 735 74 1
e 736 74 1
e 737 74 1
e 738 74 1
e 739 74 1
e 740 74 1
e 741 74 1
e 722 73 1
e 723 73 1
e 724 73 1
e 725 73 1
e 726 73 1
e 727 73 1
e 728 73 1
e 729 73 1
e 730 73 1
e 731 73 1
e 712 72 1
e 713 72 1
e 714 72 1
e 715 72 1
e 716 72 1
e 717 72 1
e 718 72 1
e 719 72 1
e 720 72 1
e 721 72 1
e 62 7 1
e 63 7 1
e 64 7 1
e 65 7 1
e 66 7 1
e 67 7 1
e 68 7 1
e 69 7 1
e 70 7 1
e 71 7 1
e 702 71 1
e 703 71 1
e 704 71 1
e 705 71 1
e 706 71 1
e 707 71 1
e 708 71 1
e 709 71 1
e 710 71 1
e 711 71 1
e 692 70 1
e 693 70 1
e 694 70 1
e 695 70 1
e 696 70 1
e 697 70 1
e 698 70 1
e 699 70 1
e 700 70 1
e 701 70 1
e 682 69 1
e 683 69 1
e 684 69 1
e 685 69 1
e 686 69 1
e 687 69 1
e 688 69 1
e 689 69 1
e 690 69 1
e 691 69 1
e 672 68 1
e 673 68 1
e 674 68 1
e 675 68 1
e 676 68 1
e 677 68 1
e 678 68 1
e 679 68 1
e 680 68 1
e 681 68 1
e 662 67 1
e 663 67 1
e 664 67 1
e 665 67 1
e 666 67 1
e 667 67 1
e 668 67 1
e 669 67 1
e 670 67 1
e 671 67 1
e 652 66 1
e 653 66 1
e 654 66 1
e 655 66 1
e 656 66 1
e 657 66 1
e 658 66 1
e 659 66 1
e 660 66 1
e 661 66 1
e 642 65 1
e 643 65 1
e 644 65 1
e 645 65 1
e 646 65 1
e 647 65 1
e 648 65 1
e 649 65 1
e 650 65 1
e 651 65 1
e 632 64 1
e 633 64 1
e 634 64 1
e 635 64 1
e 636 64 1
e 637 64 1
e 638 64 1
e 639 64 1
e 640 64 1
e 641 64 1
e 622 63 1
e 623 63 1
e 624 63 1
e 625 63 1
e 626 63 1
e 627 63 1
e 628 63 1
e 629 63 1
e 630 63 1
e 631 63 1
e 612 62 1
e 613 62 1
e 614 62 1
e 615 62 1
e 616 62 1
e 617 62 1
e 618 62 1
e 619 62 1
e 620 62 1
e 621 62 1
e 52 6 1
e 53 6 1
e 54 6 1
e 55 6 1
e 56 6 1
e 57 6 1
e 58 6 1
e 59 6 1
e 60 6 1
e 61 6 1
e 602 61 1
e 603 61 1
e 604 61 1
e 605 61 1
e 606 61 1
e 607 61 1
e 608 61 1
e 609 61 1
e 610 61 1
e 611 61 1
e 592 60 1
e 593 60 1
e 594 60 1
e 595 60 1
e 596 60 1
e 597 60 1
e 598 60 1
e 599 60 1
e 600 60 1
e 601 60 1
e 582 59 1
e 583 59 1
e 584 59 1
e 585 59 1
e 586 59 1
e 587 59 1
e 588 59 1
e 589 59 1
e 590 59 1
e 591 59 1
e 572 58 1
e 573 58 1
e 574 58 1
e 575 58 1
e 576 58 1
e 577 58 1
e 578 58 1
e 579 58 1
e 580 58 1
e 581 58 1
e 562 57 1
e 563 57 1
e 564 57 1
e 565 57 1
e 566 57 1
e 567 57 1
e 568 57 1
e 569 57 1
e 570 57 1
e 571 57 1
e 552 56 1
e 553 56 1
e 554 56 1
e 555 56 1
e 556 56 1
e 557 56 1
e 558 56 1
e 559 56 1
e 560 56 1
e 561 56 1
e 542 55 1
e 543 55 1
e 544 55 1
e 545 55 1
e 546 55 1
e 547 55 1
e 548 55 1
e 549 55 1
e 550 55 1
e 551 55 1
e 532 54 1
e 533 54 1
e 534 54 1
e 535 54 1
e 536 54 1
e 537 54 1
e 538 54 1
e 539 54 1
e 540 54 1
e 541 54 1
e 522 53 1
e 523 53 1
e 524 53 1
e 525 53 1
e 526 53 1
e 527 53 1
e 528 53 1
e 529 53 1
e 530 53 1
e 531 53 1
e 512 52 1
e 513 52 1
e 514 52 1
e 515 52 1
e 516 52 1
e 517 52 1
e 518 52 1
e 519 52 1
e 520 52 1
e 521 52 1
e 42 5 1
e 43 5 1
e 44 5 1
e 45 5 1
e 46 5 1
e 47 5 1
e 48 5 1
e 49 5 1
e 50 5 1
e 51 5 1
e 502 51 1
e 503 51 1
e 504 51 1
e 505 51 1
e 506 51 1
e 507 51 1
e 508 51 1
e 509 51 1
e 510 51 1
e 511 51 1
e 492 50 1
e 493 50 1
e 494 50 1
e 495 50 1
e 496 50 1
e 497 50 1
e 498 50 1
e 499 50 1
e 500 50 1
e 501 50 1
e 482 49 1
e 483 49 1
e 484 49 1
e 485 49 1
e 486 49 1
e 487 49 1
e 488 49 1
e 489 49 1
e 490 49 1
e 491 49 1
e 472 48 1
e 473 48 1
e 474 48 1
e 475 48 1
e 476 48 1
e 477 48 1
e 478 48 1
e 479 48 1
e 480 48 1
e 481 48 1
e 462 47 1
e 463 47 1
e 464 47 1
e 465 47 1
e 466 47 1
e 467 47 1
e 468 47 1
e 469 47 1
e 470 47 1
e 471 47 1
e 452 46 1
e 453 46 1
e 454 46 1
e 455 46 1
e 456 46 1
e 457 46 1
e 458 46 1
e 459 46 1
e 460 46 1
e 461 46 1
e 442 45 1
e 443 45 1
e 444 45 1
e 445 45 1
e 446 45 1
e 447 45 1
e 448 45 1
e 449 45 1
e 450 45 1
e 451 45 1
e 432 44 1
e 433 44 1
e 434 44 1
e 435 44 1
e 436 44 1
e 437 44 1
e 438 44 1
e 439 44 1
e 440 44 1
e 441 44 1
e 422 43 1
e 423 43 1
e 424 43 1
e 425 43 1
e 426 43 1
e 427 43 1
e 428 43 1
e 429 43 1
e 430 43 1
e 431 43 1
e 412 42 1
e 413 42 1
e 414 42 1
e 415 42 1
e 416 42 1
e 417 42 1
e 418 42 1
e 419 42 1
e 420 42 1
e 421 42 1
e 32 4 1
e 33 4 1
e 34 4 1
e 35 4 1
e 36 4 1
e 37 4 1
e 38 4 1
e 39 4 1
e 40 4 1
e 41 4 1
e 402 41 1
e 403 41 1
e 404 41 1
e 405 41 1
e 406 41 1
e 407 41 1
e 408 41 1
e 409 41 1
e 410 41 1
e 411 41 1
e 392 40 1
e 393 40 1
e 394 40 1
e 395 40 1
e 396 40 1
e 397 40 1
e 398 40 1
e 399 40 1
e 400 40 1
e 401 40 1
e 382 39 1
e 383 39 1
e 384 39 1
e 385 39 1
e 386 39 1
e 387 39 1
e 388 39 1
e 389 39 1
e 390 39 1
e 391 39 1
e 372 38 1
e 373 38 1
e 374 38 1
e 375 38 1
e 376 38 1
e 377 38 1
e 378 38 1
e 379 38 1
e 380 38 1
e 381 38 1
e 362 37 1
e 363 37 1
e 364 37 1
e 365 37 1
e 366 37 1
e 367 37 1
e 368 37 1
e 369 37 1
e 370 37 1
e 371 37 1
e 352 36 1
e 353 36 1
e 354 36 1
e 355 36 1
e 356 36 1
e 357 36 1
e 358 36 1
e 359 36 1
e 360 36 1
e 361 36 1
e 342 35 1
e 343 35 1
e 344 35 1
e 345 35 1
e 346 35 1
e 347 35 1
e 348 35 1
e 349 35 1
e 350 35 1
e 351 35 1
e 332 34 1
e 333 34 1
e 334 34 1
e 335 34 1
e 336 34 1
e 337 34 1
e 338 34 1
e 339 34 1
e 340 34 1
e 341 34 1
e 322 33 1
e 323 33 1
e 324 33 1
e 325 33 1
e 326 33 1
e 327 33 1
e 328 33 1
e 329 33 1
e 330 33 1
e 331 33 1
e 312 32 1
e 313 32 1
e 314 32 1
e 315 32 1
e 316 32 1
e 317 32 1
e 318 32 1
e 319 32 1
e 320 32 1
e 321 32 1
e 22 3 1
e 23 3 1
e 24 3 1
e 25 3 1
e 26 3 1
e 27 3 1
e 28 3 1
e 29 3 1
e 30 3 1
e 31 3 1
e 302 31 1
e 303 31 1
e 304 31 1
e 305 31 1
e 306 31 1
e 307 31 1
e 308 31 1
e 309 31 1
e 310 31 1
e 311 31 1
e 292 30 1
e 293 30 1
e 294 30 1
e 295 30 1
e 296 30 1
e 297 30 1
e 298 30 1
e 299 30 1
e 300 30 1
e 301 30 1
e 282 29 1
e 283 29 1
e 284 29 1
e 285 29 1
e 286 29 1
e 287 29 1
e 288 29 1
e 289 29 1
e 290 29 1
e 291 29 1
e 272 28 1
e 273 28 1
e 274 28 1
e 275 28 1
e 276 28 1
e 277 28 1
e 278 28 1
e 279 28 1
e 280 28 1
e 281 28 1
e 262 27 1
e 263 27 1
e 264 27 1
e 265 27 1
e 266 27 1
e 267 27 1
e 268 27 1
e 269 27 1
e 270 27 1
e 271 27 1
e 252 26 1
e 253 26 1
e 254 26 1
e 255 26 1
e 256 26 1
e 257 26 1
e 258 26 1
e 259 26 1
e 260 26 1
e 261 26 1
e 242 25 1
e 243 25 1
e 244 25 1
e 245 25 1
e 246 25 1
e 247 25 1
e 248 25 1
e 249 25 1
e 250 25 1
e 251 25 1
e 232 24 1
e 233 24 1
e 234 24 1
e 235 24 1
e 236 24 1
e 237 24 1
e 238 24 1
e 239 24 1
e 240 24 1
e 241 24 1
e 222 23 1
e 223 23 1
e 224 23 1
e 225 23 1
e 226 23 1
e 227 23 1
e 228 23 1
e 229 23 1
e 230 23 1
e 231 23 1
e 212 22 1
e 213 22 1
e 214 22 1
e 215 22 1
e 216 22 1
e 217 22 1
e 218 22 1
e 219 22 1
e 220 22 1
e 221 22 1
e 12 2 1
e 13 2 1
e 14 2 1
e 15 2 1
e 16 2 1
e 17 2 1
e 18 2 1
e 19 2 1
e 20 2 1
e 21 2 1
e 202 21 1
e 203 21 1
e 204 21 1
e 205 21 1
e 206 21 1
e 207 21 1
e 208 21 1
e 209 21 1
e 210 21 1
e 211 21 1
e 192 20 1
e 193 20 1
e 194 20 1
e 195 20 1
e 196 20 1
e 197 20 1
e 198 20 1
e 199 20 1
e 200 20 1
e 201 20 1
e 182 19 1
e 183 19 1
e 184 19 1
e 185 19 1
e 186 19 1
e 187 19 1
e 188 19 1
e 189 19 1
e 190 19 1
e 191 19 1
e 172 18 1
e 173 18 1
e 174 18 1
e 175 18 1
e 176 18 1
e 177 18 1
e 178 18 1
e 179 18 1
e 180 18 1
e 181 18 1
e 162 17 1
e 163 17 1
e 164 17 1
e 165 17 1
e 166 17 1
e 167 17 1
e 168 17 1
e 169 17 1
e 170 17 1
e 171 17 1
e 152 16 1
e 153 16 1
e 154 16 1
e 155 16 1
e 156 16 1
e 157 16 1
e 158 16 1
e 159 16 1
e 160 16 1
e 161 16 1
e 142 15 1
e 143 15 1
e 144 15 1
e 145 15 1
e 146 15 1
e 147 15 1
e 148 15 1
e 149 15 1
e 150 15 1
e 151 15 1
e 132 14 1
e 133 14 1
e 134 14 1
e 135 14 1
e 136 14 1
e 137 14 1
e 138 14 1
e 139 14 1
e 140 14 1
e 141 14 1
e 122 13 1
e 123 13 1
e 124 13 1
e 125 13 1
e 126 13 1
e 127 13 1
e 128 13 1
e 129 13 1
e 130 13 1
e 131 13 1
e 112 12 1
e 113 12 1
e 114 12 1
e 115 12 1
e 116 12 1
e 117 12 1
e 118 12 1
e 119 12 1
e 120 12 1
e 121 12 1
